% MIT License
%
% Copyright (c) 2021 Johan Ludde Wessén
%
% Permission is hereby granted, free of charge, to any person obtaining 
% a copy of this software and associated documentation files (the "Software"),
% to deal in the Software without restriction, including without limitation 
% the rights to use, copy, modify, merge, publish, distribute, sublicense, 
% and/or sell copies of the Software, and to permit persons to whom the 
% Software is furnished to do so, subject to the following conditions:
% 
% The above copyright notice and this permission notice shall be included 
% in all copies or substantial portions of the Software.
%
% THE SOFTWARE IS PROVIDED "AS IS", WITHOUT WARRANTY OF ANY KIND, 
% EXPRESS OR IMPLIED, INCLUDING BUT NOT LIMITED TO THE WARRANTIES OF
% MERCHANTABILITY, FITNESS FOR A PARTICULAR PURPOSE AND
% NONINFRINGEMENT. IN NO EVENT SHALL THE AUTHORS OR COPYRIGHT HOLDERS BE
% LIABLE FOR ANY CLAIM, DAMAGES OR OTHER LIABILITY, WHETHER IN AN ACTION
% OF CONTRACT, TORT OR OTHERWISE, ARISING FROM, OUT OF OR IN CONNECTION
% WITH THE SOFTWARE OR THE USE OR OTHER DEALINGS IN THE SOFTWARE.

%-----------------------------------------------------------------------------%
% Dual Arm Multi Capacity Multi Tool Scheduling / Routing
% Assembly Configuration
% Auto Generated by python script, authored by Johan Ludde Wessen 
%-----------------------------------------------------------------------------%


task_durations = [|25, 29, 24, 32, 26, 28, 29, 21, 54, 52, 51, 47, 52, 57, 54, 46, 25, 31, 32, 31, 31, 33,  4,  5,  7,  7,  6,  8,  8
                  |21, 27, 21, 34, 32, 23, 33, 21, 50, 52, 47, 46, 46, 55, 52, 50, 28, 25, 34, 30, 33, 29,  6,  5,  5,  5,  7,  7,  8
                  |];


TRAY_TASKS = 1..6;
CAMERA_TASKS = 17..22;
OUTPUT_TASKS = { 16 };


empty_gripper_tasks = 23..29;


gripper_pick_tasks_orders = [|7, 15, -1
|8, 16, -1
|];

suction_pick_tasks_orders = [|1, 17, 9, -1
|2, 18, 10, -1
|3, 19, 11, -1
|4, 20, 12, -1
|5, 21, 13, -1
|6, 22, 14, -1
|];

fixture_task_orders = [|9, 23, 10, 24, 11, 25, 12, 26, 7, -1
|13, 27, 14, 28, 15, 29, 8, -1, -1, -1
|];

